p edge 256 128
e 1 2
e 3 4
e 5 6
e 7 8
e 9 10
e 11 12
e 13 14
e 15 16
e 17 18
e 19 20
e 21 22
e 23 24
e 25 26
e 27 28
e 29 30
e 31 32
e 33 34
e 35 36
e 37 38
e 39 40
e 41 42
e 43 44
e 45 46
e 47 48
e 49 50
e 51 52
e 53 54
e 55 56
e 57 58
e 59 60
e 61 62
e 63 64
e 65 66
e 67 68
e 69 70
e 71 72
e 73 74
e 75 76
e 77 78
e 79 80
e 81 82
e 83 84
e 85 86
e 87 88
e 89 90
e 91 92
e 93 94
e 95 96
e 97 98
e 99 100
e 101 102
e 103 104
e 105 106
e 107 108
e 109 110
e 111 112
e 113 114
e 115 116
e 117 118
e 119 120
e 121 122
e 123 124
e 125 126
e 127 128
e 129 130
e 131 132
e 133 134
e 135 136
e 137 138
e 139 140
e 141 142
e 143 144
e 145 146
e 147 148
e 149 150
e 151 152
e 153 154
e 155 156
e 157 158
e 159 160
e 161 162
e 163 164
e 165 166
e 167 168
e 169 170
e 171 172
e 173 174
e 175 176
e 177 178
e 179 180
e 181 182
e 183 184
e 185 186
e 187 188
e 189 190
e 191 192
e 193 194
e 195 196
e 197 198
e 199 200
e 201 202
e 203 204
e 205 206
e 207 208
e 209 210
e 211 212
e 213 214
e 215 216
e 217 218
e 219 220
e 221 222
e 223 224
e 225 226
e 227 228
e 229 230
e 231 232
e 233 234
e 235 236
e 237 238
e 239 240
e 241 242
e 243 244
e 245 246
e 247 248
e 249 250
e 251 252
e 253 254
e 255 256
